
Gurobi 9.0.3 (win64, Java) logging started Mon Mar  1 03:57:22 2021


--------------------------------------------
Warning: your license will expire in 3 days
--------------------------------------------

Academic license - for non-commercial use only
